% Generated by MiniZinc 2.9.3
% Solver library: /home/icwmmarijnisse/Pumpkin/minizinc/lib
% Command line invocation: minizinc --compile --fzn ./instance.fzn --ozn ./instance.ozn --solver pumpkin ../../../../benchmarks/models/tsp/instances/tsp.mzn ../../../../benchmarks/models/tsp/instances/TSP_N15_2.dzn 

predicate pumpkin_circuit(array [int] of var int: x);
array [1..15] of int: X_INTRODUCED_33_ = [0,661,308,469,324,952,770,959,75,10,470,637,577,103,76];
array [1..15] of int: X_INTRODUCED_35_ = [661,0,551,219,519,272,136,956,358,903,71,901,251,379,292];
array [1..15] of int: X_INTRODUCED_37_ = [308,551,0,162,449,854,557,721,310,627,827,670,542,9,684];
array [1..15] of int: X_INTRODUCED_39_ = [469,219,162,0,837,568,307,955,680,107,962,900,138,271,119];
array [1..15] of int: X_INTRODUCED_41_ = [324,519,449,837,0,912,110,761,567,160,279,289,620,216,735];
array [1..15] of int: X_INTRODUCED_43_ = [952,272,854,568,912,0,352,209,704,650,874,271,518,501,258];
array [1..15] of int: X_INTRODUCED_45_ = [770,136,557,307,110,352,0,928,930,867,53,95,650,434,850];
array [1..15] of int: X_INTRODUCED_47_ = [959,956,721,955,761,209,928,0,284,46,4,342,790,134,653];
array [1..15] of int: X_INTRODUCED_49_ = [75,358,310,680,567,704,930,284,0,269,166,760,453,565,723];
array [1..15] of int: X_INTRODUCED_51_ = [10,903,627,107,160,650,867,46,269,0,438,575,10,115,78];
array [1..15] of int: X_INTRODUCED_53_ = [470,71,827,962,279,874,53,4,166,438,0,968,905,708,926];
array [1..15] of int: X_INTRODUCED_55_ = [637,901,670,900,289,271,95,342,760,575,968,0,153,559,37];
array [1..15] of int: X_INTRODUCED_57_ = [577,251,542,138,620,518,650,790,453,10,905,153,0,855,379];
array [1..15] of int: X_INTRODUCED_59_ = [103,379,9,271,216,501,434,134,565,115,708,559,855,0,597];
array [1..15] of int: X_INTRODUCED_61_ = [76,292,684,119,735,258,850,653,723,78,926,37,379,597,0];
array [1..16] of int: X_INTRODUCED_66_ = [1,-1,-1,-1,-1,-1,-1,-1,-1,-1,-1,-1,-1,-1,-1,-1];
var 1..15: X_INTRODUCED_16_;
var 1..15: X_INTRODUCED_17_;
var 1..15: X_INTRODUCED_18_;
var 1..15: X_INTRODUCED_19_;
var 1..15: X_INTRODUCED_20_;
var 1..15: X_INTRODUCED_21_;
var 1..15: X_INTRODUCED_22_;
var 1..15: X_INTRODUCED_23_;
var 1..15: X_INTRODUCED_24_;
var 1..15: X_INTRODUCED_25_;
var 1..15: X_INTRODUCED_26_;
var 1..15: X_INTRODUCED_27_;
var 1..15: X_INTRODUCED_28_;
var 1..15: X_INTRODUCED_29_;
var 1..15: X_INTRODUCED_30_;
var 0..13939: Objective:: output_var:: is_defined_var;
var 0..959: X_INTRODUCED_34_ ::var_is_introduced :: is_defined_var;
var 0..956: X_INTRODUCED_36_ ::var_is_introduced :: is_defined_var;
var 0..854: X_INTRODUCED_38_ ::var_is_introduced :: is_defined_var;
var 0..962: X_INTRODUCED_40_ ::var_is_introduced :: is_defined_var;
var 0..912: X_INTRODUCED_42_ ::var_is_introduced :: is_defined_var;
var 0..952: X_INTRODUCED_44_ ::var_is_introduced :: is_defined_var;
var 0..930: X_INTRODUCED_46_ ::var_is_introduced :: is_defined_var;
var 0..959: X_INTRODUCED_48_ ::var_is_introduced :: is_defined_var;
var 0..930: X_INTRODUCED_50_ ::var_is_introduced :: is_defined_var;
var 0..903: X_INTRODUCED_52_ ::var_is_introduced :: is_defined_var;
var 0..968: X_INTRODUCED_54_ ::var_is_introduced :: is_defined_var;
var 0..968: X_INTRODUCED_56_ ::var_is_introduced :: is_defined_var;
var 0..905: X_INTRODUCED_58_ ::var_is_introduced :: is_defined_var;
var 0..855: X_INTRODUCED_60_ ::var_is_introduced :: is_defined_var;
var 0..926: X_INTRODUCED_62_ ::var_is_introduced :: is_defined_var;
array [1..15] of var int: Successor:: output_array([1..15]) = [X_INTRODUCED_16_,X_INTRODUCED_17_,X_INTRODUCED_18_,X_INTRODUCED_19_,X_INTRODUCED_20_,X_INTRODUCED_21_,X_INTRODUCED_22_,X_INTRODUCED_23_,X_INTRODUCED_24_,X_INTRODUCED_25_,X_INTRODUCED_26_,X_INTRODUCED_27_,X_INTRODUCED_28_,X_INTRODUCED_29_,X_INTRODUCED_30_];
array [1..16] of var int: X_INTRODUCED_65_ ::var_is_introduced  = [Objective,X_INTRODUCED_34_,X_INTRODUCED_36_,X_INTRODUCED_38_,X_INTRODUCED_40_,X_INTRODUCED_42_,X_INTRODUCED_44_,X_INTRODUCED_46_,X_INTRODUCED_48_,X_INTRODUCED_50_,X_INTRODUCED_52_,X_INTRODUCED_54_,X_INTRODUCED_56_,X_INTRODUCED_58_,X_INTRODUCED_60_,X_INTRODUCED_62_];
constraint pumpkin_circuit(Successor);
constraint array_int_element(X_INTRODUCED_16_,X_INTRODUCED_33_,X_INTRODUCED_34_):: defines_var(X_INTRODUCED_34_);
constraint array_int_element(X_INTRODUCED_17_,X_INTRODUCED_35_,X_INTRODUCED_36_):: defines_var(X_INTRODUCED_36_);
constraint array_int_element(X_INTRODUCED_18_,X_INTRODUCED_37_,X_INTRODUCED_38_):: defines_var(X_INTRODUCED_38_);
constraint array_int_element(X_INTRODUCED_19_,X_INTRODUCED_39_,X_INTRODUCED_40_):: defines_var(X_INTRODUCED_40_);
constraint array_int_element(X_INTRODUCED_20_,X_INTRODUCED_41_,X_INTRODUCED_42_):: defines_var(X_INTRODUCED_42_);
constraint array_int_element(X_INTRODUCED_21_,X_INTRODUCED_43_,X_INTRODUCED_44_):: defines_var(X_INTRODUCED_44_);
constraint array_int_element(X_INTRODUCED_22_,X_INTRODUCED_45_,X_INTRODUCED_46_):: defines_var(X_INTRODUCED_46_);
constraint array_int_element(X_INTRODUCED_23_,X_INTRODUCED_47_,X_INTRODUCED_48_):: defines_var(X_INTRODUCED_48_);
constraint array_int_element(X_INTRODUCED_24_,X_INTRODUCED_49_,X_INTRODUCED_50_):: defines_var(X_INTRODUCED_50_);
constraint array_int_element(X_INTRODUCED_25_,X_INTRODUCED_51_,X_INTRODUCED_52_):: defines_var(X_INTRODUCED_52_);
constraint array_int_element(X_INTRODUCED_26_,X_INTRODUCED_53_,X_INTRODUCED_54_):: defines_var(X_INTRODUCED_54_);
constraint array_int_element(X_INTRODUCED_27_,X_INTRODUCED_55_,X_INTRODUCED_56_):: defines_var(X_INTRODUCED_56_);
constraint array_int_element(X_INTRODUCED_28_,X_INTRODUCED_57_,X_INTRODUCED_58_):: defines_var(X_INTRODUCED_58_);
constraint array_int_element(X_INTRODUCED_29_,X_INTRODUCED_59_,X_INTRODUCED_60_):: defines_var(X_INTRODUCED_60_);
constraint array_int_element(X_INTRODUCED_30_,X_INTRODUCED_61_,X_INTRODUCED_62_):: defines_var(X_INTRODUCED_62_);
constraint int_lin_eq(X_INTRODUCED_66_,X_INTRODUCED_65_,0):: defines_var(Objective);
solve  minimize Objective;
